c random clauses
p cnf 21 32
-21 -20 -18 -9 -8 -4 -3 17 0
-21 -19 -14 -12 -7 1 4 8 0
-21 -19 -14 -8 -7 -4 -2 16 0
-20 -19 -18 -17 -9 2 8 16 0
-20 -15 -12 -4 9 11 13 17 0
-20 -13 -7 1 2 12 14 19 0
-20 -13 -3 4 9 12 14 15 0
-19 -18 -17 -14 -6 -5 9 13 0
-19 -17 -7 4 6 8 12 20 0
-19 -16 -14 -6 4 10 11 18 0
-19 -11 2 5 6 16 18 20 0
-18 -17 -16 -12 -10 -2 3 11 0
-18 -17 -10 -9 -5 2 3 14 0
-18 -17 -8 -1 10 11 14 16 0
-18 -14 -11 -8 -1 2 4 20 0
-17 -15 -14 -12 -11 3 9 19 0
-17 -13 -6 3 11 16 19 20 0
-17 -11 -10 2 3 5 9 13 0
-17 -10 -1 5 6 8 9 11 0
-17 -3 -2 12 15 16 18 20 0
-16 -15 -12 -5 -3 9 17 19 0
-16 -15 -12 -2 -1 14 19 21 0
-15 -8 -4 6 11 17 18 21 0
-14 -12 -11 -2 1 16 19 20 0
-14 -12 -10 -7 -6 16 17 21 0
-14 -12 -9 -3 -2 1 10 15 0
-14 -10 -6 -1 3 11 17 18 0
-14 -7 -5 2 6 9 15 16 0
-12 -11 -4 -1 5 6 10 16 0
-11 -10 -7 -5 4 8 15 17 0
-9 -5 -2 6 10 14 15 17 0
-5 -4 1 3 6 9 10 12 0
